<number of tasks>
50

<cycle time>
1000

<order strength>
0.198


<task times>
1 216
2 222
3 67
4 149
5 130
6 202
7 96
8 133
9 81
10 170
11 127
12 156
13 158
14 77
15 161
16 109
17 37
18 112
19 314
20 116
21 125
22 116
23 300
24 110
25 82
26 53
27 260
28 21
29 272
30 149
31 22
32 161
33 183
34 166
35 64
36 56
37 53
38 83
39 168
40 49
41 126
42 43
43 83
44 166
45 122
46 99
47 52
48 148
49 124
50 229

<precedence relations>
3,8
3,13
4,9
5,14
5,15
6,11
6,12
7,10
7,38
8,20
9,20
12,16
14,21
15,17
15,18
15,19
16,21
16,22
19,24
19,25
19,48
20,23
20,26
21,27
21,29
21,30
21,31
21,33
23,32
23,35
26,28
30,38
31,35
31,36
31,37
32,34
35,41
37,39
37,43
37,44
38,40
38,42
39,46
39,48
39,49
42,45
42,47
43,50

<end>
